(set-info :Origin "This instance was generated by: BanditFuzz-- an RL fuzzer for SMT solvers" )
(set-info :Author "Joe Scott, Fed Mora, Vijay Ganesh" )
(set-info :Contact "Joe Scott, joseph.scott@uwaterloo.ca")
(set-logic QF_BV)
(declare-const bool_0 Bool)
(declare-const bool_1 Bool)
(declare-const bool_2 Bool)
(declare-const bool_3 Bool)
(declare-const bool_4 Bool)
(declare-const bv_0 (_ BitVec 32))
(declare-const bv_1 (_ BitVec 32))
(declare-const bv_2 (_ BitVec 32))
(declare-const bv_3 (_ BitVec 32))
(declare-const bv_4 (_ BitVec 32))
(assert (bvsge (bvadd (bvsdiv bv_1 bv_0) (bvudiv bv_2 bv_1)) (bvsdiv (bvand #x1b743f95  bv_3) (bvurem #xbf6bae19  bv_2))))
(assert (bvult (bvxor (bvadd #x6365d871  #x39da2304 ) (bvxor bv_3 #xd2abd003 )) (bvlshr (bvshl #xc0db72d2  #x7b3cc36e ) (bvor #xddd947e1  #x3a57103c ))))
(assert (not (or (bvslt #xe9281d56  #x7ed26c2a ) (or bool_4 false))))
(assert (bvsle (bvshl (bvshl bv_2 bv_1) (bvmul bv_3 bv_3)) (bvmul (bvnand bv_1 bv_4) (bvmul #x574aa8ec  #x9c79ae3e ))))
(assert (and (bvult (bvashr #xa0571d87  bv_0) (bvor bv_0 bv_1)) (and (bvuge bv_2 bv_0) (bvslt #x55c4d433  bv_4))))
(check-sat)
(exit)
